
Welcome to IBM(R) ILOG(R) CPLEX(R) Interactive Optimizer 22.1.1.0
  with Simplex, Mixed Integer & Barrier Optimizers
5725-A06 5725-A29 5724-Y48 5724-Y49 5724-Y54 5724-Y55 5655-Y21
Copyright IBM Corp. 1988, 2022.  All Rights Reserved.

Type 'help' for a list of available commands.
Type 'help' followed by a command name for more
information on commands.

CPLEX> Selected objective sense:  MINIMIZE
Selected objective  name:  00000000
Selected RHS        name:  RHS1
Selected bound      name:  BOUND
Problem 'ee.mps' read.
Read time = 0.03 sec. (3.14 ticks)
CPLEX> New value for time limit in seconds: 7200
CPLEX> New value for parallel optimization mode: -1
CPLEX> New value for default parallel thread count: 40
CPLEX> New value for mixed integer optimality gap tolerance: 1e-13
CPLEX> Version identifier: 22.1.1.0 | 2022-11-28 | 9160aff4d
CPXPARAM_Threads                                 40
CPXPARAM_Parallel                                -1
CPXPARAM_TimeLimit                               7200
CPXPARAM_MIP_Tolerances_MIPGap                   1e-13
Found incumbent of value 0.000000 after 0.00 sec. (0.31 ticks)
Tried aggregator 3 times.
MIP Presolve eliminated 756 rows and 3849 columns.
MIP Presolve modified 5559 coefficients.
Aggregator did 629 substitutions.
Reduced MIP has 3133 rows, 6748 columns, and 24525 nonzeros.
Reduced MIP has 6748 binaries, 0 generals, 0 SOSs, and 0 indicators.
Presolve time = 0.07 sec. (74.68 ticks)
Probing fixed 52 vars, tightened 0 bounds.
Probing time = 0.06 sec. (24.35 ticks)
Tried aggregator 2 times.
Detecting symmetries...
MIP Presolve eliminated 12 rows and 63 columns.
Aggregator did 9 substitutions.
Reduced MIP has 3112 rows, 6673 columns, and 24244 nonzeros.
Reduced MIP has 6673 binaries, 0 generals, 0 SOSs, and 0 indicators.
Presolve time = 0.04 sec. (42.98 ticks)
Probing time = 0.03 sec. (8.31 ticks)
Clique table members: 15943.
MIP emphasis: balance optimality and feasibility.
MIP search method: dynamic search.
Parallel mode: opportunistic, using up to 40 threads.
Root relaxation solution time = 0.09 sec. (71.95 ticks)

        Nodes                                         Cuts/
   Node  Left     Objective  IInf  Best Integer    Best Bound    ItCnt     Gap

*     0+    0                            0.0000  -1.31000e+13              --- 
*     0+    0                      -4.28000e+12  -1.31000e+13           206.07%
*     0+    0                      -4.40000e+12  -1.31000e+13           197.73%
      0     0  -1.30900e+13    51  -4.40000e+12  -1.30900e+13     1915  197.50%
*     0+    0                      -1.30900e+13  -1.30900e+13             0.00%
      0     0  -1.30900e+13   153  -1.30900e+13      Cuts: 80     2158    0.00%
*     0+    0                      -1.30900e+13  -1.30900e+13             0.00%
      0     0  -1.30900e+13   170  -1.30900e+13     Cuts: 100     2599    0.00%
*     0+    0                      -1.30900e+13  -1.30900e+13             0.00%
*     0+    0                      -1.30900e+13  -1.30900e+13             0.00%

Repeating presolve.
Tried aggregator 2 times.
MIP Presolve eliminated 1671 rows and 3704 columns.
MIP Presolve added 6 rows and 0 columns.
MIP Presolve modified 19 coefficients.
Aggregator did 497 substitutions.
Reduced MIP has 950 rows, 2413 columns, and 8311 nonzeros.
Reduced MIP has 2413 binaries, 0 generals, 0 SOSs, and 0 indicators.
Presolve time = 0.04 sec. (34.18 ticks)
Probing time = 0.00 sec. (2.89 ticks)
Tried aggregator 1 time.
Detecting symmetries...
Reduced MIP has 950 rows, 2413 columns, and 8311 nonzeros.
Reduced MIP has 2413 binaries, 0 generals, 0 SOSs, and 0 indicators.
Presolve time = 0.01 sec. (9.26 ticks)
Represolve time = 0.09 sec. (61.25 ticks)
Probing time = 0.00 sec. (2.85 ticks)
Clique table members: 5656.
MIP emphasis: balance optimality and feasibility.
MIP search method: dynamic search.
Parallel mode: opportunistic, using up to 40 threads.
Root relaxation solution time = 0.05 sec. (45.97 ticks)

        Nodes                                         Cuts/
   Node  Left     Objective  IInf  Best Integer    Best Bound    ItCnt     Gap

*     0+    0                      -1.30900e+13  -1.30900e+13             0.00%
      0     0  -1.30900e+13    95  -1.30900e+13  -1.30900e+13     4930    0.00%
      0     0  -1.30900e+13   103  -1.30900e+13      Cuts: 87     5116    0.00%
      0     0  -1.30900e+13    55  -1.30900e+13     Cuts: 101     5242    0.00%
      0     0  -1.30900e+13    50  -1.30900e+13      Cuts: 34     5340    0.00%
      0     0  -1.30900e+13    94  -1.30900e+13      Cuts: 23     5391    0.00%
*     0+    0                      -1.30900e+13  -1.30900e+13             0.00%

Repeating presolve.
Tried aggregator 2 times.
MIP Presolve eliminated 236 rows and 1075 columns.
MIP Presolve added 36 rows and 0 columns.
MIP Presolve modified 308 coefficients.
Aggregator did 89 substitutions.
Reduced MIP has 661 rows, 1242 columns, and 4296 nonzeros.
Reduced MIP has 1242 binaries, 0 generals, 0 SOSs, and 0 indicators.
Presolve time = 0.03 sec. (10.40 ticks)
Probing fixed 6 vars, tightened 0 bounds.
Probing time = 0.01 sec. (8.79 ticks)
Tried aggregator 1 time.
Detecting symmetries...
MIP Presolve eliminated 0 rows and 6 columns.
Reduced MIP has 661 rows, 1236 columns, and 4278 nonzeros.
Reduced MIP has 1236 binaries, 0 generals, 0 SOSs, and 0 indicators.
Presolve time = 0.00 sec. (3.30 ticks)
Represolve time = 0.05 sec. (32.47 ticks)
Probing time = 0.00 sec. (2.70 ticks)
Clique table members: 2859.
MIP emphasis: balance optimality and feasibility.
MIP search method: dynamic search.
Parallel mode: opportunistic, using up to 40 threads.
Root relaxation solution time = 0.03 sec. (16.32 ticks)

        Nodes                                         Cuts/
   Node  Left     Objective  IInf  Best Integer    Best Bound    ItCnt     Gap

*     0+    0                      -1.30900e+13  -1.30900e+13             0.00%
      0     0  -1.30900e+13    87  -1.30900e+13  -1.30900e+13     6420    0.00%
      0     0  -1.30900e+13    51  -1.30900e+13      Cuts: 66     6506    0.00%
      0     0  -1.30900e+13    85  -1.30900e+13      Cuts: 15     6548    0.00%
      0     0  -1.30900e+13    72  -1.30900e+13      Cuts: 14     6564    0.00%
      0     0  -1.30900e+13    78  -1.30900e+13      Cuts: 15     6571    0.00%
      0     2  -1.30900e+13    78  -1.30900e+13  -1.30900e+13     6571    0.00%
Elapsed time = 1.94 sec. (1253.22 ticks, tree = 0.02 MB, solutions = 12)
*    15     1      integral     0  -1.30900e+13  -1.30900e+13     6677    0.00%

GUB cover cuts applied:  7
Clique cuts applied:  55
Cover cuts applied:  56
Mixed integer rounding cuts applied:  26
Zero-half cuts applied:  21
Lift and project cuts applied:  11
Gomory fractional cuts applied:  8

Root node processing (before b&c):
  Real time             =    1.65 sec. (1253.67 ticks)
Parallel b&c, 40 threads:
  Real time             =    0.33 sec. (12.69 ticks)
  Sync time (average)   =    0.18 sec.
  Wait time (average)   =    0.00 sec.
                          ------------
Total (root+branch&cut) =    1.99 sec. (1266.36 ticks)

Solution pool: 12 solutions saved.

MIP - Integer optimal solution:  Objective = -1.3089999989e+13
Solution time =    2.01 sec.  Iterations = 6680  Nodes = 19
Deterministic time = 1266.39 ticks  (628.62 ticks/sec)

CPLEX> Solution 'p13' written to file 'ee.sol'.
CPLEX> 